(set-logic HORN)
(set-info :source |
    Benchmark: Horn constraint system (21 clauses, 16 relation symbols)
    Generated by Eldarica (http://lara.epfl.ch/w/eldarica)
    Output by Princess (http://www.philipp.ruemmer.org/princess.shtml)
|)
(set-info :status sat)
(declare-fun predtraverse_cpost_h1_with_err_1_sf_2 (Int Int Int Int Int Int Int Int Int Int Int Int Int Int Int Int Int Int Int Int Int Int Int Int Int Int Int Int Int Int Int Int Int Int Int Int) Bool)
(declare-fun predmain_eventloop_6 (Int Int Int Int Int Int Int Int Int Int Int Int Int Int Int Int Int Int Int Int Int Int Int Int Int Int Int Int Int Int Int Int Int Int Int Int Int Int Int Int) Bool)
(declare-fun predtraverse_main_without_err_1_si_14 (Int Int Int Int Int Int Int Int Int Int Int Int Int Int Int Int Int Int Int Int Int Int Int Int Int Int Int Int Int Int Int Int Int Int Int Int Int Int) Bool)
(declare-fun predtraverse_main_without_err_0_si_19 (Int Int Int Int Int Int Int Int Int Int Int Int Int Int Int Int Int Int Int Int Int Int Int Int Int Int Int Int Int Int Int Int Int Int Int Int Int Int) Bool)
(declare-fun predtraverse_main_without_err_1_si4_1_15 (Int Int Int Int Int Int Int Int Int Int Int Int Int Int Int Int Int Int Int Int Int Int Int Int Int Int Int Int Int Int Int Int Int Int Int Int Int Int) Bool)
(declare-fun predtraverse_main_without_err_0_sf_16 (Int Int Int Int Int Int Int Int Int Int Int Int Int Int Int Int Int Int Int Int Int Int Int Int Int Int Int Int Int Int Int Int Int Int Int Int) Bool)
(declare-fun predtraverse_main_without_err_0_si_21 (Int Int Int Int Int Int Int Int Int Int Int Int Int Int Int Int Int Int Int Int Int Int Int Int Int Int Int Int Int Int Int Int Int Int Int Int Int Int) Bool)
(declare-fun predtraverse_cpost_h1_without_err_1_si_9 (Int Int Int Int Int Int Int Int Int Int Int Int Int Int Int Int Int Int Int Int Int Int Int Int Int Int Int Int Int Int Int Int Int Int Int Int Int Int) Bool)
(declare-fun predtraverse_cpost_h1_without_err_1_si_8 (Int Int Int Int Int Int Int Int Int Int Int Int Int Int Int Int Int Int Int Int Int Int Int Int Int Int Int Int Int Int Int Int Int Int Int Int Int Int) Bool)
(declare-fun predmain_se_4_1 (Int Int Int Int Int Int Int Int Int Int Int Int Int Int Int Int Int Int Int Int Int Int Int Int Int Int Int Int Int Int Int Int Int Int Int Int Int Int Int Int) Bool)
(declare-fun predtraverse_cpost_h1_with_err_1_si_5 (Int Int Int Int Int Int Int Int Int Int Int Int Int Int Int Int Int Int Int Int Int Int Int Int Int Int Int Int Int Int Int Int Int Int Int Int Int Int) Bool)
(declare-fun predtraverse_main_without_err_0_si_20 (Int Int Int Int Int Int Int Int Int Int Int Int Int Int Int Int Int Int Int Int Int Int Int Int Int Int Int Int Int Int Int Int Int Int Int Int Int Int) Bool)
(declare-fun predtraverse_main_without_err_1_sf_11 (Int Int Int Int Int Int Int Int Int Int Int Int Int Int Int Int Int Int Int Int Int Int Int Int Int Int Int Int Int Int Int Int Int Int Int Int) Bool)
(declare-fun predmain_eventloop_10 (Int Int Int Int Int Int Int Int Int Int Int Int Int Int Int Int Int Int Int Int Int Int Int Int Int Int Int Int Int Int Int Int Int Int Int Int Int Int Int Int) Bool)
(declare-fun predmain_s2_5_7 (Int Int Int Int Int Int Int Int Int Int Int Int Int Int Int Int Int Int Int Int Int Int Int Int Int Int Int Int Int Int Int Int Int Int Int Int Int Int Int Int) Bool)
(declare-fun predtraverse_main_without_err_1_si_24 (Int Int Int Int Int Int Int Int Int Int Int Int Int Int Int Int Int Int Int Int Int Int Int Int Int Int Int Int Int Int Int Int Int Int Int Int Int Int) Bool)
(assert (forall ((var0 Int)) (forall ((var1 Int)) (forall ((var2 Int)) (forall ((var3 Int)) (forall ((var4 Int)) (forall ((var5 Int)) (forall ((var6 Int)) (forall ((var7 Int)) (forall ((var8 Int)) (forall ((var9 Int)) (forall ((var10 Int)) (forall ((var11 Int)) (forall ((var12 Int)) (forall ((var13 Int)) (forall ((var14 Int)) (forall ((var15 Int)) (forall ((var16 Int)) (forall ((var17 Int)) (forall ((var18 Int)) (forall ((var19 Int)) (forall ((var20 Int)) (forall ((var21 Int)) (forall ((var22 Int)) (forall ((var23 Int)) (forall ((var24 Int)) (forall ((var25 Int)) (forall ((var26 Int)) (forall ((var27 Int)) (forall ((var28 Int)) (forall ((var29 Int)) (forall ((var30 Int)) (forall ((var31 Int)) (forall ((var32 Int)) (forall ((var33 Int)) (forall ((var34 Int)) (forall ((var35 Int)) (forall ((var36 Int)) (forall ((var37 Int)) (forall ((var38 Int)) (not (predmain_se_4_1 var38 var37 var36 var35 var34 var33 var32 var31 var30 var29 var28 var27 var26 var25 var24 var23 var22 var21 var20 var19 1 var18 var17 var16 var15 var14 var13 var12 var11 var10 var9 var8 var7 var6 var5 var4 var3 var2 var1 var0 ) ) ) ) ) ) ) ) ) ) ) ) ) ) ) ) ) ) ) ) ) ) ) ) ) ) ) ) ) ) ) ) ) ) ) ) ) ) ) ) ) )
(assert (forall ((var0 Int)) (forall ((var1 Int)) (forall ((var2 Int)) (forall ((var3 Int)) (forall ((var4 Int)) (forall ((var5 Int)) (forall ((var6 Int)) (forall ((var7 Int)) (forall ((var8 Int)) (forall ((var9 Int)) (forall ((var10 Int)) (forall ((var11 Int)) (forall ((var12 Int)) (forall ((var13 Int)) (forall ((var14 Int)) (forall ((var15 Int)) (forall ((var16 Int)) (forall ((var17 Int)) (forall ((var18 Int)) (forall ((var19 Int)) (forall ((var20 Int)) (forall ((var21 Int)) (forall ((var22 Int)) (forall ((var23 Int)) (forall ((var24 Int)) (forall ((var25 Int)) (forall ((var26 Int)) (forall ((var27 Int)) (forall ((var28 Int)) (forall ((var29 Int)) (forall ((var30 Int)) (forall ((var31 Int)) (forall ((var32 Int)) (forall ((var33 Int)) (forall ((var34 Int)) (forall ((var35 Int)) (forall ((var36 Int)) (forall ((var37 Int)) (forall ((var38 Int)) (forall ((var39 Int)) (forall ((var40 Int)) (forall ((var41 Int)) (forall ((var42 Int)) (forall ((var43 Int)) (forall ((var44 Int)) (forall ((var45 Int)) (forall ((var46 Int)) (forall ((var47 Int)) (forall ((var48 Int)) (forall ((var49 Int)) (forall ((var50 Int)) (forall ((var51 Int)) (forall ((var52 Int)) (forall ((var53 Int)) (forall ((var54 Int)) (forall ((var55 Int)) (forall ((var56 Int)) (forall ((var57 Int)) (forall ((var58 Int)) (forall ((var59 Int)) (not (and (and (and (<= 0 (+ (* (- 1) var58 ) 1 ) ) (<= 0 var58 ) ) (<= 0 (+ var12 (* (- 1) 1 ) ) ) ) (and (and (predmain_eventloop_6 var39 var38 var37 var36 var35 var34 var33 var32 var31 var30 var29 var28 var27 var26 var25 var24 var23 var22 var21 var20 var19 var18 var17 var16 var15 var14 var13 var12 var11 var10 var9 var8 var7 var6 var5 var4 var3 var2 var1 var0 ) (predtraverse_cpost_h1_with_err_1_sf_2 var59 var16 var58 var14 var13 (+ var12 (* (- 1) 1 ) ) var11 (+ var10 1 ) var9 var8 var7 var6 var5 var4 var3 var2 var18 var0 var57 var56 var55 var54 var53 var52 var51 var50 var49 var48 var47 var46 var45 var44 var43 var42 var41 var40 ) ) (not (predmain_se_4_1 var39 var38 var37 var36 var35 var34 var33 var32 var31 var30 var29 var28 var27 var26 var25 var24 var23 var22 var21 var20 var57 var18 var58 var56 var55 var54 var53 var52 var51 var50 var49 var48 var47 var46 var45 var44 var43 var42 var41 var40 ) ) ) ) ) ) ) ) ) ) ) ) ) ) ) ) ) ) ) ) ) ) ) ) ) ) ) ) ) ) ) ) ) ) ) ) ) ) ) ) ) ) ) ) ) ) ) ) ) ) ) ) ) ) ) ) ) ) ) ) ) ) ) ) ) )
(assert (forall ((var0 Int)) (forall ((var1 Int)) (forall ((var2 Int)) (forall ((var3 Int)) (forall ((var4 Int)) (forall ((var5 Int)) (forall ((var6 Int)) (forall ((var7 Int)) (forall ((var8 Int)) (forall ((var9 Int)) (forall ((var10 Int)) (forall ((var11 Int)) (forall ((var12 Int)) (forall ((var13 Int)) (forall ((var14 Int)) (forall ((var15 Int)) (forall ((var16 Int)) (forall ((var17 Int)) (forall ((var18 Int)) (forall ((var19 Int)) (forall ((var20 Int)) (forall ((var21 Int)) (forall ((var22 Int)) (forall ((var23 Int)) (forall ((var24 Int)) (forall ((var25 Int)) (forall ((var26 Int)) (forall ((var27 Int)) (forall ((var28 Int)) (forall ((var29 Int)) (forall ((var30 Int)) (forall ((var31 Int)) (forall ((var32 Int)) (forall ((var33 Int)) (forall ((var34 Int)) (forall ((var35 Int)) (forall ((var36 Int)) (not (and (<= 0 (+ var9 (* (- 1) 1 ) ) ) (and (predtraverse_cpost_h1_with_err_1_si_5 var36 var35 var34 var33 var32 var31 var30 var29 var28 var27 var26 var25 var24 var23 var22 var21 var20 var19 var18 var17 var16 var15 var1 var14 var13 var12 var11 var10 var9 var8 var7 var6 var5 var4 var3 var2 var1 var0 ) (not (predtraverse_cpost_h1_with_err_1_sf_2 var35 var34 var33 var32 var31 var30 var29 var28 var27 var26 var25 var24 var23 var22 var21 var20 var19 var18 1 var15 var1 var14 var13 var12 var11 var10 (+ var9 (* (- 1) 1 ) ) var8 var7 var6 var5 var4 var3 var2 var1 var0 ) ) ) ) ) ) ) ) ) ) ) ) ) ) ) ) ) ) ) ) ) ) ) ) ) ) ) ) ) ) ) ) ) ) ) ) ) ) ) ) ) ) )
(assert (forall ((var0 Int)) (forall ((var1 Int)) (forall ((var2 Int)) (forall ((var3 Int)) (forall ((var4 Int)) (forall ((var5 Int)) (forall ((var6 Int)) (forall ((var7 Int)) (forall ((var8 Int)) (forall ((var9 Int)) (forall ((var10 Int)) (forall ((var11 Int)) (forall ((var12 Int)) (forall ((var13 Int)) (forall ((var14 Int)) (forall ((var15 Int)) (forall ((var16 Int)) (forall ((var17 Int)) (forall ((var18 Int)) (forall ((var19 Int)) (forall ((var20 Int)) (forall ((var21 Int)) (forall ((var22 Int)) (forall ((var23 Int)) (forall ((var24 Int)) (forall ((var25 Int)) (forall ((var26 Int)) (forall ((var27 Int)) (forall ((var28 Int)) (forall ((var29 Int)) (forall ((var30 Int)) (forall ((var31 Int)) (forall ((var32 Int)) (forall ((var33 Int)) (forall ((var34 Int)) (forall ((var35 Int)) (forall ((var36 Int)) (not (and (<= 0 (+ var11 (* (- 1) 1 ) ) ) (and (predtraverse_cpost_h1_with_err_1_si_5 var36 var35 var34 var33 var32 var31 var30 var29 var28 var27 var26 var25 var24 var23 var22 var21 var20 var19 var18 var17 var16 var15 var1 var14 var13 var12 var11 var10 var9 var8 var7 var6 var5 var4 var3 var2 var1 var0 ) (not (predtraverse_cpost_h1_with_err_1_sf_2 var35 var34 var33 var32 var31 var30 var29 var28 var27 var26 var25 var24 var23 var22 var21 var20 var19 var18 1 var15 var1 var14 var13 var12 (+ var11 (* (- 1) 1 ) ) var10 var9 var8 var7 var6 var5 var4 var3 var2 var1 var0 ) ) ) ) ) ) ) ) ) ) ) ) ) ) ) ) ) ) ) ) ) ) ) ) ) ) ) ) ) ) ) ) ) ) ) ) ) ) ) ) ) ) )
(assert (forall ((var0 Int)) (forall ((var1 Int)) (forall ((var2 Int)) (forall ((var3 Int)) (forall ((var4 Int)) (forall ((var5 Int)) (forall ((var6 Int)) (forall ((var7 Int)) (forall ((var8 Int)) (forall ((var9 Int)) (forall ((var10 Int)) (forall ((var11 Int)) (forall ((var12 Int)) (forall ((var13 Int)) (forall ((var14 Int)) (forall ((var15 Int)) (forall ((var16 Int)) (forall ((var17 Int)) (forall ((var18 Int)) (forall ((var19 Int)) (forall ((var20 Int)) (forall ((var21 Int)) (forall ((var22 Int)) (forall ((var23 Int)) (forall ((var24 Int)) (forall ((var25 Int)) (forall ((var26 Int)) (forall ((var27 Int)) (forall ((var28 Int)) (forall ((var29 Int)) (forall ((var30 Int)) (forall ((var31 Int)) (forall ((var32 Int)) (forall ((var33 Int)) (forall ((var34 Int)) (forall ((var35 Int)) (forall ((var36 Int)) (forall ((var37 Int)) (forall ((var38 Int)) (forall ((var39 Int)) (forall ((var40 Int)) (forall ((var41 Int)) (forall ((var42 Int)) (forall ((var43 Int)) (not (and (and (and (<= 0 (+ (* (- 1) var40 ) 1 ) ) (<= 0 var40 ) ) (<= 0 (+ var12 (* (- 1) 1 ) ) ) ) (and (predmain_eventloop_6 var39 var38 var37 var36 var35 var34 var33 var32 var31 var30 var29 var28 var27 var26 var25 var24 var23 var22 var21 var20 var19 var18 var17 var16 var15 var14 var13 var12 var11 var10 var9 var8 var7 var6 var5 var4 var3 var2 var1 var0 ) (not (predtraverse_cpost_h1_with_err_1_si_5 var43 var41 var16 var40 var14 var13 (+ var12 (* (- 1) 1 ) ) var11 (+ var10 1 ) var9 var8 var7 var6 var5 var4 var3 var2 var18 var0 var42 var41 var16 var40 var14 var13 (+ var12 (* (- 1) 1 ) ) var11 (+ var10 1 ) var9 var8 var7 var6 var5 var4 var3 var2 var18 var0 ) ) ) ) ) ) ) ) ) ) ) ) ) ) ) ) ) ) ) ) ) ) ) ) ) ) ) ) ) ) ) ) ) ) ) ) ) ) ) ) ) ) ) ) ) ) ) ) ) )
(assert (forall ((var0 Int)) (forall ((var1 Int)) (forall ((var2 Int)) (forall ((var3 Int)) (forall ((var4 Int)) (forall ((var5 Int)) (forall ((var6 Int)) (forall ((var7 Int)) (forall ((var8 Int)) (forall ((var9 Int)) (forall ((var10 Int)) (forall ((var11 Int)) (forall ((var12 Int)) (forall ((var13 Int)) (forall ((var14 Int)) (forall ((var15 Int)) (forall ((var16 Int)) (forall ((var17 Int)) (forall ((var18 Int)) (forall ((var19 Int)) (forall ((var20 Int)) (forall ((var21 Int)) (forall ((var22 Int)) (forall ((var23 Int)) (forall ((var24 Int)) (forall ((var25 Int)) (forall ((var26 Int)) (forall ((var27 Int)) (forall ((var28 Int)) (forall ((var29 Int)) (forall ((var30 Int)) (forall ((var31 Int)) (forall ((var32 Int)) (forall ((var33 Int)) (forall ((var34 Int)) (forall ((var35 Int)) (forall ((var36 Int)) (forall ((var37 Int)) (forall ((var38 Int)) (forall ((var39 Int)) (not (and (predmain_s2_5_7 var39 var38 var37 var36 var35 var34 var33 var32 var31 var30 var29 var28 var27 var26 var25 var24 var23 var22 var21 var20 var19 var18 var17 var16 var15 var14 var13 var12 var11 var10 var9 var8 var7 var6 var5 var4 var3 var2 var1 var0 ) (not (predmain_eventloop_6 var39 var38 var37 var36 var35 var34 var33 var32 var31 var30 var29 var28 var27 var26 var25 var24 var23 var22 var21 var20 var19 var17 var17 var16 var15 var14 var13 var12 var11 var10 var9 var8 var7 var6 var5 var4 var3 var2 var1 var0 ) ) ) ) ) ) ) ) ) ) ) ) ) ) ) ) ) ) ) ) ) ) ) ) ) ) ) ) ) ) ) ) ) ) ) ) ) ) ) ) ) ) ) ) )
(assert (forall ((var0 Int)) (forall ((var1 Int)) (forall ((var2 Int)) (forall ((var3 Int)) (forall ((var4 Int)) (forall ((var5 Int)) (forall ((var6 Int)) (forall ((var7 Int)) (forall ((var8 Int)) (forall ((var9 Int)) (forall ((var10 Int)) (forall ((var11 Int)) (forall ((var12 Int)) (forall ((var13 Int)) (forall ((var14 Int)) (forall ((var15 Int)) (forall ((var16 Int)) (forall ((var17 Int)) (forall ((var18 Int)) (forall ((var19 Int)) (forall ((var20 Int)) (forall ((var21 Int)) (forall ((var22 Int)) (forall ((var23 Int)) (forall ((var24 Int)) (forall ((var25 Int)) (forall ((var26 Int)) (forall ((var27 Int)) (forall ((var28 Int)) (forall ((var29 Int)) (forall ((var30 Int)) (forall ((var31 Int)) (forall ((var32 Int)) (forall ((var33 Int)) (forall ((var34 Int)) (forall ((var35 Int)) (forall ((var36 Int)) (forall ((var37 Int)) (forall ((var38 Int)) (forall ((var39 Int)) (forall ((var40 Int)) (forall ((var41 Int)) (forall ((var42 Int)) (forall ((var43 Int)) (forall ((var44 Int)) (forall ((var45 Int)) (forall ((var46 Int)) (forall ((var47 Int)) (forall ((var48 Int)) (forall ((var49 Int)) (forall ((var50 Int)) (forall ((var51 Int)) (forall ((var52 Int)) (forall ((var53 Int)) (forall ((var54 Int)) (forall ((var55 Int)) (forall ((var56 Int)) (forall ((var57 Int)) (forall ((var58 Int)) (forall ((var59 Int)) (forall ((var60 Int)) (not (and (and (and (and (<= 0 (+ (* (- 1) var58 ) 1 ) ) (<= 0 var58 ) ) (<= 0 (+ var45 (* (- 1) 1 ) ) ) ) (<= 0 (+ var12 (* (- 1) 1 ) ) ) ) (and (and (predmain_eventloop_10 var39 var38 var37 var36 var35 var34 var33 var32 var31 var30 var29 var28 var27 var26 var25 var24 var23 var22 var21 var20 var19 var18 var17 var16 var15 var14 var13 var12 var11 var10 var9 var8 var7 var6 var5 var4 var3 var2 var1 var0 ) (predtraverse_cpost_h1_without_err_1_si_8 var60 var59 var16 var58 var14 (+ var13 1 ) (+ var12 (* (- 1) 1 ) ) var11 var10 var9 var8 var7 var6 var5 var4 var3 var2 var18 var0 var57 var56 var55 var41 var54 var53 var52 var51 var50 var49 var48 var47 var46 var45 var44 var43 var42 var41 var40 ) ) (not (predmain_s2_5_7 var39 var38 var37 var36 var35 var34 var33 var32 var31 var30 var29 var28 var27 var26 var25 var24 var23 var22 var21 var20 1 var18 var58 var55 var41 var54 var53 var52 var51 var50 var49 var48 var47 var46 (+ var45 (* (- 1) 1 ) ) var44 var43 var42 var41 var40 ) ) ) ) ) ) ) ) ) ) ) ) ) ) ) ) ) ) ) ) ) ) ) ) ) ) ) ) ) ) ) ) ) ) ) ) ) ) ) ) ) ) ) ) ) ) ) ) ) ) ) ) ) ) ) ) ) ) ) ) ) ) ) ) ) ) )
(assert (forall ((var0 Int)) (forall ((var1 Int)) (forall ((var2 Int)) (forall ((var3 Int)) (forall ((var4 Int)) (forall ((var5 Int)) (forall ((var6 Int)) (forall ((var7 Int)) (forall ((var8 Int)) (forall ((var9 Int)) (forall ((var10 Int)) (forall ((var11 Int)) (forall ((var12 Int)) (forall ((var13 Int)) (forall ((var14 Int)) (forall ((var15 Int)) (forall ((var16 Int)) (forall ((var17 Int)) (forall ((var18 Int)) (forall ((var19 Int)) (forall ((var20 Int)) (forall ((var21 Int)) (forall ((var22 Int)) (forall ((var23 Int)) (forall ((var24 Int)) (forall ((var25 Int)) (forall ((var26 Int)) (forall ((var27 Int)) (forall ((var28 Int)) (forall ((var29 Int)) (forall ((var30 Int)) (forall ((var31 Int)) (forall ((var32 Int)) (forall ((var33 Int)) (forall ((var34 Int)) (forall ((var35 Int)) (forall ((var36 Int)) (forall ((var37 Int)) (not (and (<= 0 (+ var6 (* (- 1) 1 ) ) ) (and (predtraverse_cpost_h1_without_err_1_si_9 var37 var36 var35 var34 var33 var32 var31 var30 var29 var28 var27 var26 var25 var24 var23 var22 var21 var20 var19 var18 var17 var16 var15 var14 var13 var12 var11 var10 var9 var8 var7 var6 var5 var4 var3 var2 var1 var0 ) (not (predtraverse_cpost_h1_without_err_1_si_8 var37 var36 var35 var34 var33 var32 var31 var30 var29 var28 var27 var26 var25 var24 var23 var22 var21 var20 var19 var18 var17 var16 var15 var14 var13 var12 var11 var10 var9 var8 var7 (+ var6 (* (- 1) 1 ) ) (+ var5 1 ) var4 var3 var2 0 var0 ) ) ) ) ) ) ) ) ) ) ) ) ) ) ) ) ) ) ) ) ) ) ) ) ) ) ) ) ) ) ) ) ) ) ) ) ) ) ) ) ) ) ) )
(assert (forall ((var0 Int)) (forall ((var1 Int)) (forall ((var2 Int)) (forall ((var3 Int)) (forall ((var4 Int)) (forall ((var5 Int)) (forall ((var6 Int)) (forall ((var7 Int)) (forall ((var8 Int)) (forall ((var9 Int)) (forall ((var10 Int)) (forall ((var11 Int)) (forall ((var12 Int)) (forall ((var13 Int)) (forall ((var14 Int)) (forall ((var15 Int)) (forall ((var16 Int)) (forall ((var17 Int)) (forall ((var18 Int)) (forall ((var19 Int)) (forall ((var20 Int)) (forall ((var21 Int)) (forall ((var22 Int)) (forall ((var23 Int)) (forall ((var24 Int)) (forall ((var25 Int)) (forall ((var26 Int)) (forall ((var27 Int)) (forall ((var28 Int)) (forall ((var29 Int)) (forall ((var30 Int)) (forall ((var31 Int)) (forall ((var32 Int)) (forall ((var33 Int)) (forall ((var34 Int)) (forall ((var35 Int)) (forall ((var36 Int)) (forall ((var37 Int)) (forall ((var38 Int)) (forall ((var39 Int)) (forall ((var40 Int)) (forall ((var41 Int)) (forall ((var42 Int)) (forall ((var43 Int)) (not (and (and (and (<= 0 (+ (* (- 1) var40 ) 1 ) ) (<= 0 var40 ) ) (<= 0 (+ var12 (* (- 1) 1 ) ) ) ) (and (predmain_eventloop_10 var39 var38 var37 var36 var35 var34 var33 var32 var31 var30 var29 var28 var27 var26 var25 var24 var23 var22 var21 var20 var19 var18 var17 var16 var15 var14 var13 var12 var11 var10 var9 var8 var7 var6 var5 var4 var3 var2 var1 var0 ) (not (predtraverse_cpost_h1_without_err_1_si_9 var43 var41 var16 var40 var14 (+ var13 1 ) (+ var12 (* (- 1) 1 ) ) var11 var10 var9 var8 var7 var6 var5 var4 var3 var2 var18 var0 var42 var41 var16 var40 var14 (+ var13 1 ) (+ var12 (* (- 1) 1 ) ) var11 var10 var9 var8 var7 var6 var5 var4 var3 var2 var18 var0 ) ) ) ) ) ) ) ) ) ) ) ) ) ) ) ) ) ) ) ) ) ) ) ) ) ) ) ) ) ) ) ) ) ) ) ) ) ) ) ) ) ) ) ) ) ) ) ) ) )
(assert (forall ((var0 Int)) (forall ((var1 Int)) (forall ((var2 Int)) (forall ((var3 Int)) (forall ((var4 Int)) (forall ((var5 Int)) (forall ((var6 Int)) (forall ((var7 Int)) (forall ((var8 Int)) (forall ((var9 Int)) (forall ((var10 Int)) (forall ((var11 Int)) (forall ((var12 Int)) (forall ((var13 Int)) (forall ((var14 Int)) (forall ((var15 Int)) (forall ((var16 Int)) (forall ((var17 Int)) (forall ((var18 Int)) (forall ((var19 Int)) (forall ((var20 Int)) (forall ((var21 Int)) (forall ((var22 Int)) (forall ((var23 Int)) (forall ((var24 Int)) (forall ((var25 Int)) (forall ((var26 Int)) (forall ((var27 Int)) (forall ((var28 Int)) (forall ((var29 Int)) (forall ((var30 Int)) (forall ((var31 Int)) (forall ((var32 Int)) (forall ((var33 Int)) (forall ((var34 Int)) (forall ((var35 Int)) (forall ((var36 Int)) (forall ((var37 Int)) (forall ((var38 Int)) (forall ((var39 Int)) (not (and (and (and (and (<= 0 (+ (* (- 1) var20 ) 1 ) ) (<= 0 var20 ) ) (<= 0 (+ (* (- 1) var17 ) 1 ) ) ) (<= 0 var17 ) ) (and (predtraverse_main_without_err_1_sf_11 var21 0 var20 var19 0 0 0 0 0 0 0 0 0 0 var18 0 var17 1 1 var16 var15 var14 var13 var12 var11 var10 var9 var8 var7 var6 var5 var4 var3 var2 var1 var0 ) (not (predmain_eventloop_10 var39 var38 var37 var36 var35 var19 var34 var33 var32 var31 var30 var29 var28 var27 var26 var25 var18 var24 var23 var22 0 var20 var20 var16 var15 var14 var13 var12 var11 var10 var9 var8 var7 var6 var5 var4 var3 var2 var1 var0 ) ) ) ) ) ) ) ) ) ) ) ) ) ) ) ) ) ) ) ) ) ) ) ) ) ) ) ) ) ) ) ) ) ) ) ) ) ) ) ) ) ) ) ) ) )
(assert (forall ((var0 Int)) (forall ((var1 Int)) (forall ((var2 Int)) (forall ((var3 Int)) (forall ((var4 Int)) (forall ((var5 Int)) (forall ((var6 Int)) (forall ((var7 Int)) (forall ((var8 Int)) (forall ((var9 Int)) (forall ((var10 Int)) (forall ((var11 Int)) (forall ((var12 Int)) (forall ((var13 Int)) (forall ((var14 Int)) (forall ((var15 Int)) (forall ((var16 Int)) (forall ((var17 Int)) (forall ((var18 Int)) (forall ((var19 Int)) (forall ((var20 Int)) (forall ((var21 Int)) (forall ((var22 Int)) (forall ((var23 Int)) (forall ((var24 Int)) (forall ((var25 Int)) (forall ((var26 Int)) (forall ((var27 Int)) (forall ((var28 Int)) (forall ((var29 Int)) (forall ((var30 Int)) (forall ((var31 Int)) (forall ((var32 Int)) (forall ((var33 Int)) (forall ((var34 Int)) (forall ((var35 Int)) (forall ((var36 Int)) (not (and (<= 0 (+ var7 (* (- 1) 1 ) ) ) (and (predtraverse_main_without_err_1_si_14 var36 var35 var34 var33 var32 var31 var30 var29 var28 var27 var26 var25 var24 var23 var22 var21 var20 var19 var18 var17 var16 var15 var1 var14 var13 var12 var11 var10 var9 var8 var7 var6 var5 var4 var3 var2 var1 var0 ) (not (predtraverse_main_without_err_1_sf_11 var35 var34 var33 var32 var31 var30 var29 var28 var27 var26 var25 var24 var23 var22 var21 var20 var19 var18 1 var15 var1 var14 var13 var12 var11 var10 var9 var8 (+ var7 (* (- 1) 1 ) ) var6 var5 var4 var3 var2 var1 var0 ) ) ) ) ) ) ) ) ) ) ) ) ) ) ) ) ) ) ) ) ) ) ) ) ) ) ) ) ) ) ) ) ) ) ) ) ) ) ) ) ) ) )
(assert (forall ((var0 Int)) (forall ((var1 Int)) (forall ((var2 Int)) (forall ((var3 Int)) (forall ((var4 Int)) (forall ((var5 Int)) (forall ((var6 Int)) (forall ((var7 Int)) (forall ((var8 Int)) (forall ((var9 Int)) (forall ((var10 Int)) (forall ((var11 Int)) (forall ((var12 Int)) (forall ((var13 Int)) (forall ((var14 Int)) (forall ((var15 Int)) (forall ((var16 Int)) (forall ((var17 Int)) (forall ((var18 Int)) (forall ((var19 Int)) (forall ((var20 Int)) (forall ((var21 Int)) (forall ((var22 Int)) (forall ((var23 Int)) (forall ((var24 Int)) (forall ((var25 Int)) (forall ((var26 Int)) (forall ((var27 Int)) (forall ((var28 Int)) (forall ((var29 Int)) (forall ((var30 Int)) (forall ((var31 Int)) (forall ((var32 Int)) (forall ((var33 Int)) (forall ((var34 Int)) (forall ((var35 Int)) (forall ((var36 Int)) (not (and (<= 0 (+ var4 (* (- 1) 1 ) ) ) (and (predtraverse_main_without_err_1_si_14 var36 var35 var34 var33 var32 var31 var30 var29 var28 var27 var26 var25 var24 var23 var22 var21 var20 var19 var18 var17 var16 var15 var1 var14 var13 var12 var11 var10 var9 var8 var7 var6 var5 var4 var3 var2 var1 var0 ) (not (predtraverse_main_without_err_1_sf_11 var35 var34 var33 var32 var31 var30 var29 var28 var27 var26 var25 var24 var23 var22 var21 var20 var19 var18 1 var15 var1 var14 var13 var12 var11 var10 var9 var8 var7 var6 var5 (+ var4 (* (- 1) 1 ) ) var3 var2 var1 var0 ) ) ) ) ) ) ) ) ) ) ) ) ) ) ) ) ) ) ) ) ) ) ) ) ) ) ) ) ) ) ) ) ) ) ) ) ) ) ) ) ) ) )
(assert (forall ((var0 Int)) (forall ((var1 Int)) (forall ((var2 Int)) (forall ((var3 Int)) (forall ((var4 Int)) (forall ((var5 Int)) (forall ((var6 Int)) (forall ((var7 Int)) (forall ((var8 Int)) (forall ((var9 Int)) (forall ((var10 Int)) (forall ((var11 Int)) (forall ((var12 Int)) (forall ((var13 Int)) (forall ((var14 Int)) (forall ((var15 Int)) (forall ((var16 Int)) (forall ((var17 Int)) (forall ((var18 Int)) (forall ((var19 Int)) (forall ((var20 Int)) (forall ((var21 Int)) (forall ((var22 Int)) (forall ((var23 Int)) (forall ((var24 Int)) (forall ((var25 Int)) (forall ((var26 Int)) (forall ((var27 Int)) (forall ((var28 Int)) (forall ((var29 Int)) (forall ((var30 Int)) (forall ((var31 Int)) (forall ((var32 Int)) (forall ((var33 Int)) (forall ((var34 Int)) (forall ((var35 Int)) (forall ((var36 Int)) (not (and (predtraverse_main_without_err_1_si4_1_15 var36 var35 var34 var33 var32 var31 var30 var29 var28 var27 var26 var25 var24 var23 var22 var21 var20 var19 var18 1 var17 var16 var15 var14 var13 var12 var11 var10 var9 var8 var7 var6 var5 var4 var3 var2 var1 var0 ) (not (predtraverse_main_without_err_1_si_14 var36 var35 var34 var33 var32 var31 var30 var29 var28 var27 var26 var25 var24 var23 var22 var21 var20 var19 var18 0 var17 var16 var15 var14 var13 var12 var11 var10 var9 var8 var7 var6 var5 (+ var4 1 ) var3 var2 var1 var0 ) ) ) ) ) ) ) ) ) ) ) ) ) ) ) ) ) ) ) ) ) ) ) ) ) ) ) ) ) ) ) ) ) ) ) ) ) ) ) ) ) )
(assert (forall ((var0 Int)) (forall ((var1 Int)) (forall ((var2 Int)) (forall ((var3 Int)) (forall ((var4 Int)) (forall ((var5 Int)) (forall ((var6 Int)) (forall ((var7 Int)) (forall ((var8 Int)) (forall ((var9 Int)) (forall ((var10 Int)) (forall ((var11 Int)) (forall ((var12 Int)) (forall ((var13 Int)) (forall ((var14 Int)) (forall ((var15 Int)) (forall ((var16 Int)) (forall ((var17 Int)) (forall ((var18 Int)) (forall ((var19 Int)) (forall ((var20 Int)) (forall ((var21 Int)) (forall ((var22 Int)) (forall ((var23 Int)) (forall ((var24 Int)) (forall ((var25 Int)) (forall ((var26 Int)) (forall ((var27 Int)) (forall ((var28 Int)) (forall ((var29 Int)) (forall ((var30 Int)) (forall ((var31 Int)) (forall ((var32 Int)) (forall ((var33 Int)) (forall ((var34 Int)) (forall ((var35 Int)) (forall ((var36 Int)) (forall ((var37 Int)) (forall ((var38 Int)) (forall ((var39 Int)) (forall ((var40 Int)) (forall ((var41 Int)) (forall ((var42 Int)) (forall ((var43 Int)) (forall ((var44 Int)) (forall ((var45 Int)) (forall ((var46 Int)) (forall ((var47 Int)) (forall ((var48 Int)) (forall ((var49 Int)) (forall ((var50 Int)) (forall ((var51 Int)) (forall ((var52 Int)) (forall ((var53 Int)) (forall ((var54 Int)) (forall ((var55 Int)) (forall ((var56 Int)) (forall ((var57 Int)) (not (and (and (and (<= 0 (+ (* (- 1) var56 ) 1 ) ) (<= 0 var56 ) ) (<= 0 (+ var0 (* (- 1) 1 ) ) ) ) (and (and (predtraverse_main_without_err_1_si_24 var37 var36 var35 var34 var33 var32 var31 var30 var29 var28 var27 var26 var25 var24 var23 var22 var21 var20 var19 var18 var17 var16 var15 var14 var13 var12 var11 var10 var9 var8 var7 var6 var5 var4 var3 var2 var1 var0 ) (predtraverse_main_without_err_0_sf_16 var57 (+ var16 1 ) var15 var56 var13 var12 var11 var10 var9 var8 var7 var6 var5 var4 var1 var2 var56 (+ var0 (* (- 1) 1 ) ) var55 var54 var53 var52 var51 var50 var49 var48 var47 var46 var45 var44 var43 var42 var41 var40 var39 var38 ) ) (not (predtraverse_main_without_err_1_si4_1_15 var37 var36 var35 var34 var33 var32 var31 var30 var29 var28 var27 var26 var25 var24 var23 var22 var21 var20 var19 var55 var17 var54 var53 var52 var51 var50 var49 var48 var47 var46 var45 var44 var43 var42 var41 var40 var39 var38 ) ) ) ) ) ) ) ) ) ) ) ) ) ) ) ) ) ) ) ) ) ) ) ) ) ) ) ) ) ) ) ) ) ) ) ) ) ) ) ) ) ) ) ) ) ) ) ) ) ) ) ) ) ) ) ) ) ) ) ) ) ) ) )
(assert (forall ((var0 Int)) (forall ((var1 Int)) (forall ((var2 Int)) (forall ((var3 Int)) (forall ((var4 Int)) (forall ((var5 Int)) (forall ((var6 Int)) (forall ((var7 Int)) (forall ((var8 Int)) (forall ((var9 Int)) (forall ((var10 Int)) (forall ((var11 Int)) (forall ((var12 Int)) (forall ((var13 Int)) (forall ((var14 Int)) (forall ((var15 Int)) (forall ((var16 Int)) (forall ((var17 Int)) (forall ((var18 Int)) (forall ((var19 Int)) (forall ((var20 Int)) (forall ((var21 Int)) (forall ((var22 Int)) (forall ((var23 Int)) (forall ((var24 Int)) (forall ((var25 Int)) (forall ((var26 Int)) (forall ((var27 Int)) (forall ((var28 Int)) (forall ((var29 Int)) (forall ((var30 Int)) (forall ((var31 Int)) (forall ((var32 Int)) (forall ((var33 Int)) (forall ((var34 Int)) (forall ((var35 Int)) (forall ((var36 Int)) (not (and (<= 0 (+ var4 (* (- 1) 1 ) ) ) (and (predtraverse_main_without_err_0_si_19 var36 var35 var34 var33 var32 var31 var30 var29 var28 var27 var26 var25 var24 var23 var22 var21 var20 var19 var18 var17 var16 var15 var14 var3 var13 var12 var11 var10 var9 var8 var7 var6 var5 var4 var3 var2 var1 var0 ) (not (predtraverse_main_without_err_0_sf_16 var35 var34 var33 var32 var31 var30 var29 var28 var27 var26 var25 var24 var23 var22 var21 var20 var19 var18 1 var15 var14 var3 var13 var12 var11 var10 var9 var8 var7 var6 var5 (+ var4 (* (- 1) 1 ) ) var3 var2 var1 var0 ) ) ) ) ) ) ) ) ) ) ) ) ) ) ) ) ) ) ) ) ) ) ) ) ) ) ) ) ) ) ) ) ) ) ) ) ) ) ) ) ) ) )
(assert (forall ((var0 Int)) (forall ((var1 Int)) (forall ((var2 Int)) (forall ((var3 Int)) (forall ((var4 Int)) (forall ((var5 Int)) (forall ((var6 Int)) (forall ((var7 Int)) (forall ((var8 Int)) (forall ((var9 Int)) (forall ((var10 Int)) (forall ((var11 Int)) (forall ((var12 Int)) (forall ((var13 Int)) (forall ((var14 Int)) (forall ((var15 Int)) (forall ((var16 Int)) (forall ((var17 Int)) (forall ((var18 Int)) (forall ((var19 Int)) (forall ((var20 Int)) (forall ((var21 Int)) (forall ((var22 Int)) (forall ((var23 Int)) (forall ((var24 Int)) (forall ((var25 Int)) (forall ((var26 Int)) (forall ((var27 Int)) (forall ((var28 Int)) (forall ((var29 Int)) (forall ((var30 Int)) (forall ((var31 Int)) (forall ((var32 Int)) (forall ((var33 Int)) (forall ((var34 Int)) (forall ((var35 Int)) (forall ((var36 Int)) (not (and (<= 0 (+ var7 (* (- 1) 1 ) ) ) (and (predtraverse_main_without_err_0_si_19 var36 var35 var34 var33 var32 var31 var30 var29 var28 var27 var26 var25 var24 var23 var22 var21 var20 var19 var18 var17 var16 var15 var14 var3 var13 var12 var11 var10 var9 var8 var7 var6 var5 var4 var3 var2 var1 var0 ) (not (predtraverse_main_without_err_0_sf_16 var35 var34 var33 var32 var31 var30 var29 var28 var27 var26 var25 var24 var23 var22 var21 var20 var19 var18 1 var15 var14 var3 var13 var12 var11 var10 var9 var8 (+ var7 (* (- 1) 1 ) ) var6 var5 var4 var3 var2 var1 var0 ) ) ) ) ) ) ) ) ) ) ) ) ) ) ) ) ) ) ) ) ) ) ) ) ) ) ) ) ) ) ) ) ) ) ) ) ) ) ) ) ) ) )
(assert (forall ((var0 Int)) (forall ((var1 Int)) (forall ((var2 Int)) (forall ((var3 Int)) (forall ((var4 Int)) (forall ((var5 Int)) (forall ((var6 Int)) (forall ((var7 Int)) (forall ((var8 Int)) (forall ((var9 Int)) (forall ((var10 Int)) (forall ((var11 Int)) (forall ((var12 Int)) (forall ((var13 Int)) (forall ((var14 Int)) (forall ((var15 Int)) (forall ((var16 Int)) (forall ((var17 Int)) (forall ((var18 Int)) (forall ((var19 Int)) (forall ((var20 Int)) (forall ((var21 Int)) (forall ((var22 Int)) (forall ((var23 Int)) (forall ((var24 Int)) (forall ((var25 Int)) (forall ((var26 Int)) (forall ((var27 Int)) (forall ((var28 Int)) (forall ((var29 Int)) (forall ((var30 Int)) (forall ((var31 Int)) (forall ((var32 Int)) (forall ((var33 Int)) (forall ((var34 Int)) (forall ((var35 Int)) (forall ((var36 Int)) (forall ((var37 Int)) (not (and (<= 0 (+ var8 (* (- 1) 1 ) ) ) (and (predtraverse_main_without_err_0_si_20 var37 var36 var35 var34 var33 var32 var31 var30 var29 var28 var27 var26 var25 var24 var23 var22 var21 var20 var19 var18 var17 var16 var15 var14 var13 var12 var11 var10 var9 var8 var7 var6 var5 var4 var3 var2 var1 var0 ) (not (predtraverse_main_without_err_0_si_19 var37 var36 var35 var34 var33 var32 var31 var30 var29 var28 var27 var26 var25 var24 var23 var22 var21 var20 var19 var18 var17 var16 var15 var14 var13 var12 var11 var10 var9 (+ var8 (* (- 1) 1 ) ) (+ var7 1 ) var6 var5 var4 var3 var2 var1 var0 ) ) ) ) ) ) ) ) ) ) ) ) ) ) ) ) ) ) ) ) ) ) ) ) ) ) ) ) ) ) ) ) ) ) ) ) ) ) ) ) ) ) ) )
(assert (forall ((var0 Int)) (forall ((var1 Int)) (forall ((var2 Int)) (forall ((var3 Int)) (forall ((var4 Int)) (forall ((var5 Int)) (forall ((var6 Int)) (forall ((var7 Int)) (forall ((var8 Int)) (forall ((var9 Int)) (forall ((var10 Int)) (forall ((var11 Int)) (forall ((var12 Int)) (forall ((var13 Int)) (forall ((var14 Int)) (forall ((var15 Int)) (forall ((var16 Int)) (forall ((var17 Int)) (forall ((var18 Int)) (forall ((var19 Int)) (forall ((var20 Int)) (forall ((var21 Int)) (forall ((var22 Int)) (forall ((var23 Int)) (forall ((var24 Int)) (forall ((var25 Int)) (forall ((var26 Int)) (forall ((var27 Int)) (forall ((var28 Int)) (forall ((var29 Int)) (forall ((var30 Int)) (forall ((var31 Int)) (forall ((var32 Int)) (forall ((var33 Int)) (forall ((var34 Int)) (forall ((var35 Int)) (forall ((var36 Int)) (forall ((var37 Int)) (not (and (<= 0 (+ var16 (* (- 1) 1 ) ) ) (and (predtraverse_main_without_err_0_si_21 var37 var36 var35 var34 var33 var32 var31 var30 var29 var28 var27 var26 var25 var24 var23 var22 var21 var20 var19 var18 var17 var16 var15 var14 var13 var12 var11 var10 var9 var8 var7 var6 var5 var4 var3 var2 var1 var0 ) (not (predtraverse_main_without_err_0_si_20 var37 var36 var35 var34 var33 var32 var31 var30 var29 var28 var27 var26 var25 var24 var23 var22 var21 var20 var19 var18 var17 (+ var16 (* (- 1) 1 ) ) var15 var14 var13 (+ var12 1 ) var11 var10 var9 (+ var8 1 ) var7 var6 var5 var4 var3 var2 var1 var0 ) ) ) ) ) ) ) ) ) ) ) ) ) ) ) ) ) ) ) ) ) ) ) ) ) ) ) ) ) ) ) ) ) ) ) ) ) ) ) ) ) ) ) )
(assert (forall ((var0 Int)) (forall ((var1 Int)) (forall ((var2 Int)) (forall ((var3 Int)) (forall ((var4 Int)) (forall ((var5 Int)) (forall ((var6 Int)) (forall ((var7 Int)) (forall ((var8 Int)) (forall ((var9 Int)) (forall ((var10 Int)) (forall ((var11 Int)) (forall ((var12 Int)) (forall ((var13 Int)) (forall ((var14 Int)) (forall ((var15 Int)) (forall ((var16 Int)) (forall ((var17 Int)) (forall ((var18 Int)) (forall ((var19 Int)) (forall ((var20 Int)) (forall ((var21 Int)) (forall ((var22 Int)) (forall ((var23 Int)) (forall ((var24 Int)) (forall ((var25 Int)) (forall ((var26 Int)) (forall ((var27 Int)) (forall ((var28 Int)) (forall ((var29 Int)) (forall ((var30 Int)) (forall ((var31 Int)) (forall ((var32 Int)) (forall ((var33 Int)) (forall ((var34 Int)) (forall ((var35 Int)) (forall ((var36 Int)) (forall ((var37 Int)) (forall ((var38 Int)) (forall ((var39 Int)) (forall ((var40 Int)) (forall ((var41 Int)) (not (and (and (and (<= 0 (+ (* (- 1) var38 ) 1 ) ) (<= 0 var38 ) ) (<= 0 (+ var0 (* (- 1) 1 ) ) ) ) (and (predtraverse_main_without_err_1_si_24 var37 var36 var35 var34 var33 var32 var31 var30 var29 var28 var27 var26 var25 var24 var23 var22 var21 var20 var19 var18 var17 var16 var15 var14 var13 var12 var11 var10 var9 var8 var7 var6 var5 var4 var3 var2 var1 var0 ) (not (predtraverse_main_without_err_0_si_21 var41 var39 (+ var16 1 ) var15 var38 var13 var12 var11 var10 var9 var8 var7 var6 var5 var4 var1 var2 var38 (+ var0 (* (- 1) 1 ) ) var40 var39 (+ var16 1 ) var15 var38 var13 var12 var11 var10 var9 var8 var7 var6 var5 var4 var1 var2 var38 (+ var0 (* (- 1) 1 ) ) ) ) ) ) ) ) ) ) ) ) ) ) ) ) ) ) ) ) ) ) ) ) ) ) ) ) ) ) ) ) ) ) ) ) ) ) ) ) ) ) ) ) ) ) ) ) ) )
(assert (forall ((var0 Int)) (forall ((var1 Int)) (forall ((var2 Int)) (forall ((var3 Int)) (forall ((var4 Int)) (forall ((var5 Int)) (forall ((var6 Int)) (forall ((var7 Int)) (forall ((var8 Int)) (forall ((var9 Int)) (forall ((var10 Int)) (forall ((var11 Int)) (forall ((var12 Int)) (forall ((var13 Int)) (forall ((var14 Int)) (forall ((var15 Int)) (forall ((var16 Int)) (forall ((var17 Int)) (forall ((var18 Int)) (forall ((var19 Int)) (forall ((var20 Int)) (forall ((var21 Int)) (forall ((var22 Int)) (forall ((var23 Int)) (forall ((var24 Int)) (forall ((var25 Int)) (forall ((var26 Int)) (forall ((var27 Int)) (forall ((var28 Int)) (forall ((var29 Int)) (forall ((var30 Int)) (forall ((var31 Int)) (forall ((var32 Int)) (forall ((var33 Int)) (forall ((var34 Int)) (forall ((var35 Int)) (forall ((var36 Int)) (forall ((var37 Int)) (forall ((var38 Int)) (forall ((var39 Int)) (forall ((var40 Int)) (forall ((var41 Int)) (not (and (and (and (<= 0 (+ (* (- 1) var38 ) 1 ) ) (<= 0 var38 ) ) (<= 0 (+ var0 (* (- 1) 1 ) ) ) ) (and (predtraverse_main_without_err_1_si_24 var37 var36 var35 var34 var33 var32 var31 var30 var29 var28 var27 var26 var25 var24 var23 var22 var21 var20 var19 var18 var17 var16 var15 var14 var13 var12 var11 var10 var9 var8 var7 var6 var5 var4 var3 var2 var1 var0 ) (not (predtraverse_main_without_err_0_si_21 var41 var39 var16 var38 var15 var13 var12 var11 var10 var9 var8 var7 var6 var5 (+ var4 1 ) var38 var2 var1 (+ var0 (* (- 1) 1 ) ) var40 var39 var16 var38 var15 var13 var12 var11 var10 var9 var8 var7 var6 var5 (+ var4 1 ) var38 var2 var1 (+ var0 (* (- 1) 1 ) ) ) ) ) ) ) ) ) ) ) ) ) ) ) ) ) ) ) ) ) ) ) ) ) ) ) ) ) ) ) ) ) ) ) ) ) ) ) ) ) ) ) ) ) ) ) ) ) )
(assert (forall ((var0 Int)) (forall ((var1 Int)) (forall ((var2 Int)) (forall ((var3 Int)) (forall ((var4 Int)) (forall ((var5 Int)) (forall ((var6 Int)) (not (and (and (and (and (<= 0 (+ (* (- 1) var3 ) 1 ) ) (<= 0 var3 ) ) (<= 0 (+ (* (- 1) var0 ) 1 ) ) ) (<= 0 var0 ) ) (not (predtraverse_main_without_err_1_si_24 var6 var4 0 var3 var2 0 0 0 0 0 0 0 0 0 0 var1 0 var0 1 var5 var4 0 var3 var2 0 0 0 0 0 0 0 0 0 0 var1 0 var0 1 ) ) ) ) ) ) ) ) ) ) ) )
(check-sat)
